\ Model prob_77
\ LP format - for model browsing. Use MPS format to capture full model detail.
Minimize
  151000 open[0] + 192000 open[1] + 114000 open[2] + 171000 open[3]
   + 160000 open[4] + 120000 open[5] + 182000 open[6] + 186000 open[7]
   + 174000 open[8] + 3 x[0,0] + 5 x[0,1] + 4 x[0,2] + 3 x[0,3] + 5 x[0,4]
   + 2 x[0,5] + 4 x[1,0] + 2 x[1,1] + 4 x[1,2] + 5 x[1,3] + x[1,4]
   + 4 x[1,5] + 2 x[2,0] + 5 x[2,1] + 4 x[2,2] + x[2,3] + x[2,4] + 3 x[2,5]
   + 3 x[3,0] + 2 x[3,1] + 4 x[3,2] + 4 x[3,3] + 3 x[3,4] + 4 x[3,5]
   + 4 x[4,0] + x[4,1] + 3 x[4,2] + 5 x[4,3] + 3 x[4,4] + 5 x[4,5] + x[5,0]
   + 2 x[5,1] + 4 x[5,2] + x[5,3] + 4 x[5,4] + 2 x[5,5] + 2 x[6,0] + x[6,1]
   + 2 x[6,2] + 5 x[6,3] + 2 x[6,4] + 4 x[6,5] + 4 x[7,0] + 4 x[7,1]
   + 4 x[7,2] + 5 x[7,3] + 3 x[7,4] + x[7,5] + 4 x[8,0] + 2 x[8,1]
   + 4 x[8,2] + 2 x[8,3] + 2 x[8,4] + 4 x[8,5]
Subject To
 R0: x[0,0] + x[1,0] + x[2,0] + x[3,0] + x[4,0] + x[5,0] + x[6,0] + x[7,0]
   + x[8,0] >= 876
 R1: x[0,1] + x[1,1] + x[2,1] + x[3,1] + x[4,1] + x[5,1] + x[6,1] + x[7,1]
   + x[8,1] >= 801
 R2: x[0,2] + x[1,2] + x[2,2] + x[3,2] + x[4,2] + x[5,2] + x[6,2] + x[7,2]
   + x[8,2] >= 955
 R3: x[0,3] + x[1,3] + x[2,3] + x[3,3] + x[4,3] + x[5,3] + x[6,3] + x[7,3]
   + x[8,3] >= 561
 R4: x[0,4] + x[1,4] + x[2,4] + x[3,4] + x[4,4] + x[5,4] + x[6,4] + x[7,4]
   + x[8,4] >= 601
 R5: x[0,5] + x[1,5] + x[2,5] + x[3,5] + x[4,5] + x[5,5] + x[6,5] + x[7,5]
   + x[8,5] >= 669
 R6: - 1615 open[0] + x[0,0] + x[0,1] + x[0,2] + x[0,3] + x[0,4] + x[0,5]
   <= 0
 R7: - 1255 open[1] + x[1,0] + x[1,1] + x[1,2] + x[1,3] + x[1,4] + x[1,5]
   <= 0
 R8: - 1816 open[2] + x[2,0] + x[2,1] + x[2,2] + x[2,3] + x[2,4] + x[2,5]
   <= 0
 R9: - 1095 open[3] + x[3,0] + x[3,1] + x[3,2] + x[3,3] + x[3,4] + x[3,5]
   <= 0
 R10: - 1519 open[4] + x[4,0] + x[4,1] + x[4,2] + x[4,3] + x[4,4] + x[4,5]
   <= 0
 R11: - 1137 open[5] + x[5,0] + x[5,1] + x[5,2] + x[5,3] + x[5,4] + x[5,5]
   <= 0
 R12: - 1678 open[6] + x[6,0] + x[6,1] + x[6,2] + x[6,3] + x[6,4] + x[6,5]
   <= 0
 R13: - 1876 open[7] + x[7,0] + x[7,1] + x[7,2] + x[7,3] + x[7,4] + x[7,5]
   <= 0
 R14: - 1591 open[8] + x[8,0] + x[8,1] + x[8,2] + x[8,3] + x[8,4] + x[8,5]
   <= 0
Bounds
Binaries
 open[0] open[1] open[2] open[3] open[4] open[5] open[6] open[7] open[8]
End
